33D32945 STP File, STP Format Version 1.0

SECTION Comment
Name    "cancer8_6D"
Creator "S. A. Chowdhury, A. A. Schaffer, R. Schwartz"
Problem "Rectilinear Steiner Minimum Tree"
Remark  "Derived from a problem in (prostate) cancer research"
END

SECTION Graph 
Nodes 77
END

SECTION Coordinates
DDDDDD 1 2 2 2 2 2 2 
DDDDDD 2 0 1 1 1 2 2 
DDDDDD 3 1 1 1 2 2 3 
DDDDDD 4 2 1 1 1 2 2 
DDDDDD 5 4 2 3 2 6 3 
DDDDDD 6 1 1 2 1 2 2 
DDDDDD 7 1 2 2 1 2 2 
DDDDDD 8 2 1 2 1 2 2 
DDDDDD 9 2 1 2 1 3 2 
DDDDDD 10 2 2 2 1 2 2 
DDDDDD 11 1 2 2 2 2 2 
DDDDDD 12 2 1 1 1 1 2 
DDDDDD 13 2 1 1 1 2 1 
DDDDDD 14 2 1 2 1 1 2 
DDDDDD 15 2 1 2 1 2 1 
DDDDDD 16 2 1 2 1 4 2 
DDDDDD 17 2 1 2 2 2 2 
DDDDDD 18 2 1 2 2 3 1 
DDDDDD 19 2 1 3 1 2 2 
DDDDDD 20 2 1 3 1 3 2 
DDDDDD 21 2 1 4 1 2 2 
DDDDDD 22 2 2 2 1 1 2 
DDDDDD 23 2 2 2 1 2 1 
DDDDDD 24 2 2 2 1 4 2 
DDDDDD 25 2 2 2 2 2 4 
DDDDDD 26 2 2 2 2 3 2 
DDDDDD 27 2 2 2 2 4 2 
DDDDDD 28 2 2 3 1 2 2 
DDDDDD 29 2 3 1 2 2 2 
DDDDDD 30 2 3 2 2 2 2 
DDDDDD 31 2 4 2 3 2 2 
DDDDDD 32 3 1 2 1 2 2 
DDDDDD 33 3 1 2 1 3 2 
DDDDDD 34 3 1 2 2 4 3 
DDDDDD 35 4 1 4 1 2 2 
DDDDDD 36 2 2 2 2 1 4 
DDDDDD 37 4 2 4 2 6 2 
DDDDDD 38 5 2 4 2 2 3 
DDDDDD 39 2 2 1 2 2 2 
DDDDDD 40 2 2 2 2 2 1 
DDDDDD 41 2 2 4 2 2 2 
DDDDDD 42 0 2 2 2 1 2 
DDDDDD 43 0 2 2 2 2 2 
DDDDDD 44 1 1 2 2 3 2 
DDDDDD 45 1 2 2 2 1 2 
DDDDDD 46 1 2 3 2 2 2 
DDDDDD 47 2 1 2 2 1 2 
DDDDDD 48 2 2 2 1 1 1 
DDDDDD 49 2 2 2 1 4 1 
DDDDDD 50 2 2 2 2 1 2 
DDDDDD 51 2 2 2 3 2 2 
DDDDDD 52 2 2 3 1 1 2 
DDDDDD 53 2 2 3 2 2 2 
DDDDDD 54 2 2 3 2 3 2 
DDDDDD 55 4 1 2 2 4 3 
DDDDDD 56 4 2 4 2 2 3 
DDDDDD 57 4 2 4 2 3 3 
DDDDDD 58 4 2 4 2 4 2 
DDDDDD 59 4 2 4 2 4 3 
DDDDDD 60 4 2 4 3 5 4 
DDDDDD 61 2 2 3 2 1 4 
DDDDDD 62 2 2 4 2 4 4 
DDDDDD 63 3 2 4 2 4 3 
DDDDDD 64 4 2 3 2 3 3 
DDDDDD 65 4 2 4 2 2 4 
DDDDDD 66 4 2 4 2 5 3 
DDDDDD 67 4 2 5 2 3 3 
DDDDDD 68 4 3 4 2 4 4 
DDDDDD 69 5 2 4 2 4 4 
DDDDDD 70 2 2 2 2 2 3 
DDDDDD 71 3 2 4 2 4 4 
DDDDDD 72 3 3 3 2 3 4 
DDDDDD 73 3 3 4 2 4 4 
DDDDDD 74 4 1 4 2 4 3 
DDDDDD 75 4 2 4 2 4 4 
DDDDDD 76 4 4 4 2 4 4 
DDDDDD 77 5 3 4 1 4 3 
END

EOF
